! UKS B3LYP def2-SVP TightSCF SP

%scf
  MaxIter 300
end

* xyz 0 3
C   0.00000   0.00000  -2.25000
H   1.08250   0.00000  -2.25000
H  -0.54125   0.93740  -2.25000
H  -0.54125  -0.93740  -2.25000

C   0.00000   0.00000   2.25000
H   1.08250   0.00000   2.25000
H  -0.54125   0.93740   2.25000
H  -0.54125  -0.93740   2.25000
*
