! ROKS B3LYP def2-SVP SP
! LargePrint   
! UseSym          
! NormalSCF       


* xyz 0 2
C      0.000000      0.000000      0.000000
H      1.082530      0.000000      0.000000
H     -0.541265      0.937475      0.000000
H     -0.541265     -0.937475      0.000000
*
