! def2-SVP TightSCF
! CASSCF
! MORead

%moinp "d3h-triplete.gbw"

%casscf
  nel  2          # 2 electrones activos
  norb 6          # 6 orbitales activos (CAS(2,6))
  mult 1,3        # Calcular bloques de Singulete y Triplete
  nroots 1,1      # 1 raíz para cada multiplicidad
  PTMethod FIC_CASPT2    
end


* xyz 0 3
C   0.00000   0.00000  -1.75000
H   1.08250   0.00000  -1.75000
H  -0.54125   0.93740  -1.75000
H  -0.54125  -0.93740  -1.75000
C   0.00000   0.00000   1.75000
H   1.08250   0.00000   1.75000
H  -0.54125   0.93740   1.75000
H  -0.54125  -0.93740   1.75000
*