! UKS B3LYP def2-SVP TightSCF SP
! NoUseSym
! MORead

%moinp "d3d-triplete.gbw"

%scf
  MaxIter 300
  FlipSpin 4   
  FinalMs  0.0
end


* xyz 0 3
C   0.00000   0.00000 -1.75000
H   1.08250   0.00000 -1.75000
H  -0.54125   0.93740 -1.75000
H  -0.54125  -0.93740 -1.75000

C   0.00000   0.00000  1.75000
H   0.54125   0.93740  1.75000
H  -1.08250   0.00000  1.75000
H   0.54125  -0.93740  1.75000
*
